
Gurobi 13.0.1 (linux64) logging started Sat Mar 21 12:28:33 2026

Set parameter LogFile to value "logs_fast/100B_6F_deterministic_2026-03-21_12h26m41s.log"
Set parameter MIPGap to value 0.005
Set parameter OptimalityTol to value 0.005
Gurobi Optimizer version 13.0.1 build v13.0.1rc0 (linux64 - "openSUSE Tumbleweed")

CPU model: Intel(R) Core(TM) i7-10610U CPU @ 1.80GHz, instruction set [SSE2|AVX|AVX2]
Thread count: 4 physical cores, 8 logical processors, using up to 8 threads

Non-default parameters:
TimeLimit  3600
SoftMemLimit  12
MIPGap  0.005
OptimalityTol  0.005

Optimize a model with 119300 rows, 3060110 columns and 9210625 nonzeros (Max)
Model fingerprint: 0x0fa281d8
Model has 2984960 linear objective coefficients
Variable types: 30110 continuous, 3030000 integer (3030000 binary)
Coefficient statistics:
  Matrix range     [3e-05, 1e+05]
  Objective range  [2e+01, 3e+03]
  Bounds range     [1e+00, 1e+05]
  RHS range        [1e+00, 1e+05]

Presolve removed 78112 rows and 2622130 columns
Presolve time: 3.16s
Presolved: 41188 rows, 437980 columns, 1385020 nonzeros
Variable types: 10335 continuous, 427645 integer (427645 binary)
Found heuristic solution: objective -4.38491e+08
Performing another presolve...
Presolve added 0 rows and 10 columns
Presolve removed 20 rows and 0 columns
Presolve time: 3.62s
Deterministic concurrent LP optimizer: primal simplex, dual simplex, and barrier
Showing barrier log only...

Root barrier log...

Ordering time: 1.17s

Barrier statistics:
 AA' NZ     : 6.728e+05
 Factor NZ  : 4.612e+06 (roughly 230 MB of memory)
 Factor Ops : 9.178e+08 (less than 1 second per iteration)
 Threads    : 2

                  Objective                Residual
Iter       Primal          Dual         Primal    Dual     Compl     Time
   0  -3.96908364e+11  2.83779103e+09  7.99e+06 2.48e+03  4.10e+06    12s
   1  -1.12729185e+11  3.59975592e+09  2.28e+06 1.35e+02  1.20e+06    12s
   2  -1.63954778e+09  3.73249420e+09  4.17e+04 3.06e-10  2.55e+04    13s
   3   2.73617418e+08  2.30211952e+09  2.72e+03 1.95e-10  3.34e+03    13s
   4   4.00111026e+08  5.95614733e+08  1.66e+01 2.02e-10  2.22e+02    13s
   5   4.00823593e+08  4.37548006e+08  2.56e-02 2.72e-10  4.10e+01    13s
   6   4.00871270e+08  4.12060656e+08  3.44e-04 8.27e-10  1.25e+01    14s
   7   4.00938040e+08  4.03133590e+08  2.23e-06 7.94e-10  2.45e+00    14s
   8   4.01021147e+08  4.01587053e+08  2.60e-07 7.34e-10  6.31e-01    14s
   9   4.01073708e+08  4.01331399e+08  8.10e-08 7.30e-10  2.87e-01    15s
  10   4.01087869e+08  4.01222120e+08  4.75e-08 7.60e-10  1.50e-01    15s
  11   4.01099046e+08  4.01189581e+08  2.44e-08 8.04e-10  1.01e-01    15s
  12   4.01105509e+08  4.01155545e+08  1.25e-08 8.10e-10  5.58e-02    16s
  13   4.01110850e+08  4.01135542e+08  4.38e-09 7.43e-10  2.75e-02    16s
  14   4.01112264e+08  4.01129354e+08  2.58e-09 6.36e-10  1.91e-02    16s
  15   4.01112961e+08  4.01124094e+08  1.85e-09 6.86e-10  1.24e-02    16s
  16   4.01113610e+08  4.01121105e+08  1.26e-09 9.50e-10  8.36e-03    17s
  17   4.01114298e+08  4.01118759e+08  7.11e-10 7.40e-10  4.98e-03    17s
  18   4.01114502e+08  4.01117770e+08  5.53e-10 9.13e-10  3.65e-03    17s
  19   4.01114835e+08  4.01117090e+08  1.28e-09 9.60e-10  2.52e-03    18s
  20   4.01115052e+08  4.01116291e+08  5.60e-10 9.45e-10  1.38e-03    18s
  21   4.01115159e+08  4.01115938e+08  4.98e-10 9.61e-10  8.68e-04    18s
  22   4.01115198e+08  4.01115788e+08  5.84e-10 1.07e-09  6.58e-04    18s
  23   4.01115214e+08  4.01115559e+08  4.77e-10 7.30e-10  3.85e-04    19s
  24   4.01115241e+08  4.01115506e+08  3.24e-10 8.95e-10  2.95e-04    19s
  25   4.01115254e+08  4.01115405e+08  2.59e-10 8.71e-10  1.69e-04    19s
  26   4.01115262e+08  4.01115328e+08  2.87e-10 7.46e-10  7.38e-05    20s
  27   4.01115265e+08  4.01115302e+08  1.73e-09 8.17e-10  4.15e-05    20s
  28   4.01115268e+08  4.01115285e+08  3.87e-10 7.19e-10  1.80e-05    20s
  29   4.01115271e+08  4.01115277e+08  2.30e-09 6.86e-10  6.80e-06    20s
  30   4.01115272e+08  4.01115273e+08  8.15e-10 7.17e-10  1.30e-06    21s
  31   4.01115272e+08  4.01115272e+08  5.91e-10 8.25e-10  9.44e-07    21s

Barrier solved model in 31 iterations and 21.31 seconds (14.00 work units)
Optimal objective 4.01115272e+08


Root crossover log...

   15668 DPushes remaining with DInf 0.0000000e+00                21s
       0 DPushes remaining with DInf 0.0000000e+00                22s

   10766 PPushes remaining with PInf 4.3377981e-01                22s
       0 PPushes remaining with PInf 0.0000000e+00                23s

  Push phase complete: Pinf 0.0000000e+00, Dinf 3.0085992e+05     23s


Root simplex log...

Iteration    Objective       Primal Inf.    Dual Inf.      Time
   26143    4.0111527e+08   0.000000e+00   3.008581e+05     23s
   29743    4.0111527e+08   0.000000e+00   1.090892e+05     25s
   34437    4.0111527e+08   0.000000e+00   0.000000e+00     29s
Crossover time: 8.08 seconds (3.59 work units)
Concurrent spin time: 0.96s

Solved with barrier

Root relaxation: objective 4.011153e+08, 34437 iterations, 21.28 seconds (10.06 work units)
Total elapsed time = 30.41s (DegenMoves)

    Nodes    |    Current Node    |     Objective Bounds      |     Work
 Expl Unexpl |  Obj  Depth IntInf | Incumbent    BestBd   Gap | It/Node Time

     0     0 4.0112e+08    0 5580 -4.385e+08 4.0112e+08   191%     -   33s
H    0     0                    2.816557e+08 4.0112e+08  42.4%     -   35s
H    0     0                    3.640741e+08 4.0112e+08  10.2%     -   36s
H    0     0                    3.640758e+08 4.0112e+08  10.2%     -   36s
H    0     0                    3.640760e+08 4.0112e+08  10.2%     -   44s
H    0     0                    3.643917e+08 4.0112e+08  10.1%     -   46s
H    0     0                    3.957085e+08 4.0112e+08  1.37%     -   53s
H    0     0                    4.009951e+08 4.0112e+08  0.03%     -   54s

Explored 1 nodes (36120 simplex iterations) in 54.29 seconds (32.18 work units)
Thread count was 8 (of 8 available processors)

Solution count 8: 4.00995e+08 3.95708e+08 3.64392e+08 ... -4.38491e+08

Optimal solution found (tolerance 5.00e-03)
Best objective 4.009950955079e+08, best bound 4.011152718102e+08, gap 0.0300%
